(set-logic HORN)
(declare-fun state (Int (Array Int Int) (Array Int Int) (Array Int Int) (Array Int Int) Int Int (Array Int Int) (Array Int Int) Int Int Int Int Int Int Int Int Int Int Int Int Int Int Int Int Bool Bool Bool Bool (Array Int Int)) Bool)
(assert (forall ((|A_4| Int) (|B_4| (Array Int Int)) (|C_4| (Array Int Int)) (|D_4| (Array Int Int)) (|E_4| (Array Int Int)) (|F_4| Int) (|G_4| Int) (|H_4| (Array Int Int)) (|I_4| (Array Int Int)) (|J_4| Int) (|K_4| Int) (|L_4| Int) (|M_4| Int) (|N_4| Int) (|A1_2| Int) (|P_4| Int) (|Q_4| Int) (|R_4| Int) (|S_4| Int) (|T_4| Int) (|B1_2| Int) (|V_4| Int) (|C1_2| Int) (|X_4| Int) (|D1_0| Int) (|Z_4| Bool) (|.loc.4| Bool) (|.loc.5| Bool) (|.loc.6| Bool) (|A1_0| (Array Int Int)) (|.x.220| Int) (|.x.218| (Array Int Int)) (|.x.216| Int) (|.x.214| (Array Int Int)) (|.x.210| Int) (|.x.212| (Array Int Int)) (|.x.224| Int) (|.x.230| Int) (|.x.234| Int) (|.x.232| Int) (|Z_8| Bool) (|.x.211| (Array Int Int)) (|.x.221| Int) (|.x.222| Int) (|.x.227| Int) (|.x.228| Int) (|.x.233| Int) (|.x.229| Int) (|.loc.9| Bool) (|.loc.8| Bool) (|.loc.7| Bool) (|.x.223| Int) (|.x.213| (Array Int Int)) (|.x.225| Int) (|.x.226| Int) (|.x.231| Int) (|.x.219| Int) (|.x.215| Int) (|.x.217| (Array Int Int)) (|.xtv.1| (Array Int Int))) (=> (and (and (and (not .loc.5) (not .loc.4)) (not .loc.6)) (and (and (and (and (and (= D_4 E_4) (not Z_4)) (= F_4 G_4)) (= J_4 K_4)) (= H_4 I_4)) (= B_4 C_4))) (state |A_4| |B_4| |C_4| |D_4| |E_4| |F_4| |G_4| |H_4| |I_4| |J_4| |K_4| |L_4| |M_4| |N_4| |A1_2| |P_4| |Q_4| |R_4| |S_4| |T_4| |B1_2| |V_4| |C1_2| |X_4| |D1_0| |Z_4| |.loc.4| |.loc.5| |.loc.6| |A1_0|))))
(assert (forall ((|A_4| Int) (|B_4| (Array Int Int)) (|C_4| (Array Int Int)) (|D_4| (Array Int Int)) (|E_4| (Array Int Int)) (|F_4| Int) (|G_4| Int) (|H_4| (Array Int Int)) (|I_4| (Array Int Int)) (|J_4| Int) (|K_4| Int) (|L_4| Int) (|M_4| Int) (|N_4| Int) (|A1_2| Int) (|P_4| Int) (|Q_4| Int) (|R_4| Int) (|S_4| Int) (|T_4| Int) (|B1_2| Int) (|V_4| Int) (|C1_2| Int) (|X_4| Int) (|D1_0| Int) (|Z_4| Bool) (|.loc.4| Bool) (|.loc.5| Bool) (|.loc.6| Bool) (|A1_0| (Array Int Int)) (|.x.220| Int) (|.x.218| (Array Int Int)) (|.x.216| Int) (|.x.214| (Array Int Int)) (|.x.210| Int) (|.x.212| (Array Int Int)) (|.x.224| Int) (|.x.230| Int) (|.x.234| Int) (|.x.232| Int) (|Z_8| Bool) (|.x.211| (Array Int Int)) (|.x.221| Int) (|.x.222| Int) (|.x.227| Int) (|.x.228| Int) (|.x.233| Int) (|.x.229| Int) (|.loc.9| Bool) (|.loc.8| Bool) (|.loc.7| Bool) (|.x.223| Int) (|.x.213| (Array Int Int)) (|.x.225| Int) (|.x.226| Int) (|.x.231| Int) (|.x.219| Int) (|.x.215| Int) (|.x.217| (Array Int Int)) (|.xtv.1| (Array Int Int))) (=> (and (state |A_4| |B_4| |C_4| |D_4| |E_4| |F_4| |G_4| |H_4| |I_4| |J_4| |K_4| |L_4| |M_4| |N_4| |A1_2| |P_4| |Q_4| |R_4| |S_4| |T_4| |B1_2| |V_4| |C1_2| |X_4| |D1_0| |Z_4| |.loc.4| |.loc.5| |.loc.6| |A1_0|) (let ((.def_40 (not .loc.5))) (let ((.def_41 (not .loc.4))) (let ((.def_77 (= .x.224 0))) (let ((.def_81 (select D_4 M_4))) (let ((.def_95 (select D_4 S_4))) (let ((.def_99 (or Z_4 (and (and (and (= (select .def_81 (+ X_4 4096)) .x.230) (= (ite (= .x.230 .x.234) 1 0) .x.232)) (= .x.224 .x.232)) (= .x.234 (select .def_95 (+ L_4 4096))))))) (let ((.def_103 (= B_4 .x.211))) (let ((.def_106 (= L_4 .x.221))) (let ((.def_109 (= M_4 .x.222))) (let ((.def_112 (= R_4 .x.227))) (let ((.def_115 (= S_4 .x.228))) (let ((.def_118 (= X_4 .x.233))) (let ((.def_130 (= Z_4 Z_8))) (let ((.def_132 (= C1_2 .x.232))) (let ((.def_134 (= A1_2 .x.224))) (let ((.def_141 (not .loc.8))) (let ((.def_155 (not .loc.9))) (let ((.def_158 (= D1_0 .x.234))) (let ((.def_160 (= B1_2 .x.230))) (let ((.def_164 (<= 2048 P_4))) (let ((.def_171 (and .loc.4 (and .def_118 (and .def_115 (and .def_112 (and .def_109 (and .def_103 .def_106)))))))) (let ((.def_185 (= N_4 .x.223))) (let ((.def_187 (= D_4 .x.213))) (let ((.def_190 (= P_4 .x.225))) (let ((.def_193 (= Q_4 .x.226))) (let ((.def_196 (= V_4 .x.231))) (let ((.def_309 (store A1_0 .x.222 1))) (and (and (not .loc.6) (and (= K_4 .x.220) (and (= I_4 .x.218) (and (= G_4 .x.216) (and (= E_4 .x.214) (and (= A_4 .x.210) (= C_4 .x.212))))))) (or (and (or (or (or (and (or (or (and (or (and .def_41 (and (or Z_4 .def_77) (and (and (and (and (and (and (and .def_99 Z_8) .def_103) .def_106) .def_109) .def_112) .def_115) .def_118))) (and (or Z_4 (= .x.211 (store (store B_4 M_4 0) S_4 0))) (and (and (and (and .loc.4 (or Z_8 (= .x.227 .x.229))) .def_130) .def_132) .def_134))) (and (and .loc.5 .loc.9) .def_141)) (and (and (and .def_40 (and (and .def_134 (and .def_132 (and .def_130 (and .loc.8 (and .loc.4 (and .def_118 (and .def_115 (and .def_112 (and .def_109 (and .def_106 (and Z_4 .def_103))))))))))) .def_155)) .def_158) .def_160)) (and (or Z_4 .def_164) (and .def_160 (and .def_158 (and .def_40 (and .def_155 (and .def_134 (and .def_132 (and .def_130 (and .loc.8 .def_171)))))))))) (and (not .loc.7) (and (and (and (and .def_185 .def_187) .def_190) .def_193) .def_196))) (and (or Z_4 (and (= .x.213 (store D_4 S_4 (store .def_95 (+ L_4 (* 4 P_4)) .x.223))) (and (= .x.223 (select .def_81 (+ (* 4 P_4) X_4))) (not .def_164)))) (and (or Z_8 (= (+ P_4 (* (- 1) .x.225)) (- 1))) (and .def_160 (and .def_158 (and .def_40 (and .def_155 (and .def_134 (and .def_132 (and .def_130 (and .def_141 (and .def_171 .loc.7)))))))))))) (and (or Z_8 (not .def_77)) (and .def_155 (and .def_130 (and .loc.8 (and .loc.7 (and .def_41 (and .loc.5 (and .def_118 (and .def_196 (and .def_115 (and .def_112 (and .def_193 (and .def_190 (and .def_185 (and .def_109 (and .def_106 (and .def_187 (and .def_99 .def_103))))))))))))))))))) (and .def_155 (and .loc.8 (and .loc.7 (and .def_41 (and .loc.5 (and .def_118 (and .def_196 (and .def_115 (and .def_112 (and .def_193 (and .def_190 (and .def_185 (and .def_109 (and .def_106 (and .def_187 (and .def_103 (and .def_99 (and Z_4 Z_8))))))))))))))))))) (and (= T_4 .x.229) (and (= J_4 .x.219) (and (= F_4 .x.215) (= H_4 .x.217))))) (and (or Z_4 (and (and (= .x.219 0) (= .x.215 0)) (= A1_0 (store B_4 0 0)))) (and (or Z_8 (and (and (and (and (and (and (and (and (and (and (not (<= .x.210 .x.222)) (not (<= .x.210 .x.228))) (= .x.221 0)) (= .x.225 0)) (not (= .x.228 0))) (= .x.233 0)) (not (= .x.222 0))) (= (select A1_0 .x.222) 0)) (= (select .def_309 .x.228) 0)) (= .x.217 (store (store H_4 .x.222 8192) .x.228 8192))) (= .x.211 (store .def_309 .x.228 1)))) (and .def_40 (and .def_155 (and .def_134 (and .def_132 (and .def_130 (and .def_141 (and .loc.7 (and .def_41 (and .def_112 .def_187))))))))))))))))))))))))))))))))))))))))) (state |.x.210| |.x.211| |.x.212| |.x.213| |.x.214| |.x.215| |.x.216| |.x.217| |.x.218| |.x.219| |.x.220| |.x.221| |.x.222| |.x.223| |.x.224| |.x.225| |.x.226| |.x.227| |.x.228| |.x.229| |.x.230| |.x.231| |.x.232| |.x.233| |.x.234| |Z_8| |.loc.7| |.loc.8| |.loc.9| |.xtv.1|))))
(assert (forall ((|A_4| Int) (|B_4| (Array Int Int)) (|C_4| (Array Int Int)) (|D_4| (Array Int Int)) (|E_4| (Array Int Int)) (|F_4| Int) (|G_4| Int) (|H_4| (Array Int Int)) (|I_4| (Array Int Int)) (|J_4| Int) (|K_4| Int) (|L_4| Int) (|M_4| Int) (|N_4| Int) (|A1_2| Int) (|P_4| Int) (|Q_4| Int) (|R_4| Int) (|S_4| Int) (|T_4| Int) (|B1_2| Int) (|V_4| Int) (|C1_2| Int) (|X_4| Int) (|D1_0| Int) (|Z_4| Bool) (|.loc.4| Bool) (|.loc.5| Bool) (|.loc.6| Bool) (|A1_0| (Array Int Int)) (|.x.220| Int) (|.x.218| (Array Int Int)) (|.x.216| Int) (|.x.214| (Array Int Int)) (|.x.210| Int) (|.x.212| (Array Int Int)) (|.x.224| Int) (|.x.230| Int) (|.x.234| Int) (|.x.232| Int) (|Z_8| Bool) (|.x.211| (Array Int Int)) (|.x.221| Int) (|.x.222| Int) (|.x.227| Int) (|.x.228| Int) (|.x.233| Int) (|.x.229| Int) (|.loc.9| Bool) (|.loc.8| Bool) (|.loc.7| Bool) (|.x.223| Int) (|.x.213| (Array Int Int)) (|.x.225| Int) (|.x.226| Int) (|.x.231| Int) (|.x.219| Int) (|.x.215| Int) (|.x.217| (Array Int Int)) (|.xtv.1| (Array Int Int))) (=> (state |A_4| |B_4| |C_4| |D_4| |E_4| |F_4| |G_4| |H_4| |I_4| |J_4| |K_4| |L_4| |M_4| |N_4| |A1_2| |P_4| |Q_4| |R_4| |S_4| |T_4| |B1_2| |V_4| |C1_2| |X_4| |D1_0| |Z_4| |.loc.4| |.loc.5| |.loc.6| |A1_0|) (not (and Z_4 (and .loc.6 (and (not .loc.5) (not .loc.4))))))))
(check-sat)
